(set-logic QF_LRA)
(declare-fun T1 () Real )
(declare-fun T2 () Real )
(declare-fun T3 () Real )
(declare-fun T4 () Real )
(declare-fun T5 () Real )
(declare-fun T6 () Real )
(declare-fun T7 () Real )
(declare-fun T8 () Real )
(declare-fun T9 () Real )
(declare-fun T10 () Real )
(declare-fun Z () Real )
(assert ( and 
(or ( <= ( + T1 28 ) T2 ) ( <= ( + T2 24 ) T1 ) )
(or ( <= ( + T1 127 )  ( + T2 24 ) ) ( <= ( + T2 120 )( + T1 28 ) ) )
(or ( <= ( + T1 211 )  ( + T2 120 ) ) ( <= ( + T2 196 )( + T1 127 ) ) )
(or ( <= ( + T1 212 )  ( + T2 196 ) ) ( <= ( + T2 270 )( + T1 211 ) ) )
(or ( <= ( + T1 260 )  ( + T2 270 ) ) ( <= ( + T2 316 )( + T1 212 ) ) )
(or ( <= ( + T1 330 )  ( + T2 316 ) ) ( <= ( + T2 379 )( + T1 260 ) ) )
(or ( <= ( + T1 375 )  ( + T2 379 ) ) ( <= ( + T2 477 )( + T1 330 ) ) )
(or ( <= ( + T1 474 )  ( + T2 477 ) ) ( <= ( + T2 523 )( + T1 375 ) ) )
(or ( <= ( + T1 28 ) T3 ) ( <= ( + T3 14 ) T1 ) )
(or ( <= ( + T1 127 )  ( + T3 14 ) ) ( <= ( + T3 101 )( + T1 28 ) ) )
(or ( <= ( + T1 211 )  ( + T3 101 ) ) ( <= ( + T3 122 )( + T1 127 ) ) )
(or ( <= ( + T1 212 )  ( + T3 122 ) ) ( <= ( + T3 159 )( + T1 211 ) ) )
(or ( <= ( + T1 260 )  ( + T3 159 ) ) ( <= ( + T3 252 )( + T1 212 ) ) )
(or ( <= ( + T1 330 )  ( + T3 252 ) ) ( <= ( + T3 345 )( + T1 260 ) ) )
(or ( <= ( + T1 375 )  ( + T3 345 ) ) ( <= ( + T3 417 )( + T1 330 ) ) )
(or ( <= ( + T1 474 )  ( + T3 417 ) ) ( <= ( + T3 486 )( + T1 375 ) ) )
(or ( <= ( + T1 28 ) T4 ) ( <= ( + T4 11 ) T1 ) )
(or ( <= ( + T1 127 )  ( + T4 11 ) ) ( <= ( + T4 53 )( + T1 28 ) ) )
(or ( <= ( + T1 211 )  ( + T4 53 ) ) ( <= ( + T4 105 )( + T1 127 ) ) )
(or ( <= ( + T1 212 )  ( + T4 105 ) ) ( <= ( + T4 195 )( + T1 211 ) ) )
(or ( <= ( + T1 260 )  ( + T4 195 ) ) ( <= ( + T4 217 )( + T1 212 ) ) )
(or ( <= ( + T1 330 )  ( + T4 217 ) ) ( <= ( + T4 267 )( + T1 260 ) ) )
(or ( <= ( + T1 375 )  ( + T4 267 ) ) ( <= ( + T4 280 )( + T1 330 ) ) )
(or ( <= ( + T1 474 )  ( + T4 280 ) ) ( <= ( + T4 330 )( + T1 375 ) ) )
(or ( <= ( + T1 28 ) T5 ) ( <= ( + T5 48 ) T1 ) )
(or ( <= ( + T1 127 )  ( + T5 48 ) ) ( <= ( + T5 144 )( + T1 28 ) ) )
(or ( <= ( + T1 211 )  ( + T5 144 ) ) ( <= ( + T5 146 )( + T1 127 ) ) )
(or ( <= ( + T1 212 )  ( + T5 146 ) ) ( <= ( + T5 242 )( + T1 211 ) ) )
(or ( <= ( + T1 260 )  ( + T5 242 ) ) ( <= ( + T5 260 )( + T1 212 ) ) )
(or ( <= ( + T1 330 )  ( + T5 260 ) ) ( <= ( + T5 358 )( + T1 260 ) ) )
(or ( <= ( + T1 375 )  ( + T5 358 ) ) ( <= ( + T5 404 )( + T1 330 ) ) )
(or ( <= ( + T1 474 )  ( + T5 404 ) ) ( <= ( + T5 497 )( + T1 375 ) ) )
(or ( <= ( + T1 28 ) T6 ) ( <= ( + T6 93 ) T1 ) )
(or ( <= ( + T1 127 )  ( + T6 93 ) ) ( <= ( + T6 115 )( + T1 28 ) ) )
(or ( <= ( + T1 211 )  ( + T6 115 ) ) ( <= ( + T6 133 )( + T1 127 ) ) )
(or ( <= ( + T1 212 )  ( + T6 133 ) ) ( <= ( + T6 171 )( + T1 211 ) ) )
(or ( <= ( + T1 260 )  ( + T6 171 ) ) ( <= ( + T6 255 )( + T1 212 ) ) )
(or ( <= ( + T1 330 )  ( + T6 255 ) ) ( <= ( + T6 270 )( + T1 260 ) ) )
(or ( <= ( + T1 375 )  ( + T6 270 ) ) ( <= ( + T6 306 )( + T1 330 ) ) )
(or ( <= ( + T1 474 )  ( + T6 306 ) ) ( <= ( + T6 355 )( + T1 375 ) ) )
(or ( <= ( + T1 28 ) T7 ) ( <= ( + T7 1 ) T1 ) )
(or ( <= ( + T1 127 )  ( + T7 1 ) ) ( <= ( + T7 9 )( + T1 28 ) ) )
(or ( <= ( + T1 211 )  ( + T7 9 ) ) ( <= ( + T7 95 )( + T1 127 ) ) )
(or ( <= ( + T1 212 )  ( + T7 95 ) ) ( <= ( + T7 140 )( + T1 211 ) ) )
(or ( <= ( + T1 260 )  ( + T7 140 ) ) ( <= ( + T7 240 )( + T1 212 ) ) )
(or ( <= ( + T1 330 )  ( + T7 240 ) ) ( <= ( + T7 249 )( + T1 260 ) ) )
(or ( <= ( + T1 375 )  ( + T7 249 ) ) ( <= ( + T7 262 )( + T1 330 ) ) )
(or ( <= ( + T1 474 )  ( + T7 262 ) ) ( <= ( + T7 325 )( + T1 375 ) ) )
(or ( <= ( + T1 28 ) T8 ) ( <= ( + T8 50 ) T1 ) )
(or ( <= ( + T1 127 )  ( + T8 50 ) ) ( <= ( + T8 66 )( + T1 28 ) ) )
(or ( <= ( + T1 211 )  ( + T8 66 ) ) ( <= ( + T8 118 )( + T1 127 ) ) )
(or ( <= ( + T1 212 )  ( + T8 118 ) ) ( <= ( + T8 142 )( + T1 211 ) ) )
(or ( <= ( + T1 260 )  ( + T8 142 ) ) ( <= ( + T8 208 )( + T1 212 ) ) )
(or ( <= ( + T1 330 )  ( + T8 208 ) ) ( <= ( + T8 273 )( + T1 260 ) ) )
(or ( <= ( + T1 375 )  ( + T8 273 ) ) ( <= ( + T8 346 )( + T1 330 ) ) )
(or ( <= ( + T1 474 )  ( + T8 346 ) ) ( <= ( + T8 411 )( + T1 375 ) ) )
(or ( <= ( + T1 28 ) T9 ) ( <= ( + T9 12 ) T1 ) )
(or ( <= ( + T1 127 )  ( + T9 12 ) ) ( <= ( + T9 38 )( + T1 28 ) ) )
(or ( <= ( + T1 211 )  ( + T9 38 ) ) ( <= ( + T9 50 )( + T1 127 ) ) )
(or ( <= ( + T1 212 )  ( + T9 50 ) ) ( <= ( + T9 79 )( + T1 211 ) ) )
(or ( <= ( + T1 260 )  ( + T9 79 ) ) ( <= ( + T9 103 )( + T1 212 ) ) )
(or ( <= ( + T1 330 )  ( + T9 103 ) ) ( <= ( + T9 161 )( + T1 260 ) ) )
(or ( <= ( + T1 375 )  ( + T9 161 ) ) ( <= ( + T9 235 )( + T1 330 ) ) )
(or ( <= ( + T1 474 )  ( + T9 235 ) ) ( <= ( + T9 303 )( + T1 375 ) ) )
(or ( <= ( + T1 28 ) T10 ) ( <= ( + T10 79 ) T1 ) )
(or ( <= ( + T1 127 )  ( + T10 79 ) ) ( <= ( + T10 170 )( + T1 28 ) ) )
(or ( <= ( + T1 211 )  ( + T10 170 ) ) ( <= ( + T10 176 )( + T1 127 ) ) )
(or ( <= ( + T1 212 )  ( + T10 176 ) ) ( <= ( + T10 190 )( + T1 211 ) ) )
(or ( <= ( + T1 260 )  ( + T10 190 ) ) ( <= ( + T10 248 )( + T1 212 ) ) )
(or ( <= ( + T1 330 )  ( + T10 248 ) ) ( <= ( + T10 341 )( + T1 260 ) ) )
(or ( <= ( + T1 375 )  ( + T10 341 ) ) ( <= ( + T10 355 )( + T1 330 ) ) )
(or ( <= ( + T1 474 )  ( + T10 355 ) ) ( <= ( + T10 365 )( + T1 375 ) ) )
(or ( <= ( + T2 24 ) T3 ) ( <= ( + T3 14 ) T2 ) )
(or ( <= ( + T2 120 )  ( + T3 14 ) ) ( <= ( + T3 101 )( + T2 24 ) ) )
(or ( <= ( + T2 196 )  ( + T3 101 ) ) ( <= ( + T3 122 )( + T2 120 ) ) )
(or ( <= ( + T2 270 )  ( + T3 122 ) ) ( <= ( + T3 159 )( + T2 196 ) ) )
(or ( <= ( + T2 316 )  ( + T3 159 ) ) ( <= ( + T3 252 )( + T2 270 ) ) )
(or ( <= ( + T2 379 )  ( + T3 252 ) ) ( <= ( + T3 345 )( + T2 316 ) ) )
(or ( <= ( + T2 477 )  ( + T3 345 ) ) ( <= ( + T3 417 )( + T2 379 ) ) )
(or ( <= ( + T2 523 )  ( + T3 417 ) ) ( <= ( + T3 486 )( + T2 477 ) ) )
(or ( <= ( + T2 24 ) T4 ) ( <= ( + T4 11 ) T2 ) )
(or ( <= ( + T2 120 )  ( + T4 11 ) ) ( <= ( + T4 53 )( + T2 24 ) ) )
(or ( <= ( + T2 196 )  ( + T4 53 ) ) ( <= ( + T4 105 )( + T2 120 ) ) )
(or ( <= ( + T2 270 )  ( + T4 105 ) ) ( <= ( + T4 195 )( + T2 196 ) ) )
(or ( <= ( + T2 316 )  ( + T4 195 ) ) ( <= ( + T4 217 )( + T2 270 ) ) )
(or ( <= ( + T2 379 )  ( + T4 217 ) ) ( <= ( + T4 267 )( + T2 316 ) ) )
(or ( <= ( + T2 477 )  ( + T4 267 ) ) ( <= ( + T4 280 )( + T2 379 ) ) )
(or ( <= ( + T2 523 )  ( + T4 280 ) ) ( <= ( + T4 330 )( + T2 477 ) ) )
(or ( <= ( + T2 24 ) T5 ) ( <= ( + T5 48 ) T2 ) )
(or ( <= ( + T2 120 )  ( + T5 48 ) ) ( <= ( + T5 144 )( + T2 24 ) ) )
(or ( <= ( + T2 196 )  ( + T5 144 ) ) ( <= ( + T5 146 )( + T2 120 ) ) )
(or ( <= ( + T2 270 )  ( + T5 146 ) ) ( <= ( + T5 242 )( + T2 196 ) ) )
(or ( <= ( + T2 316 )  ( + T5 242 ) ) ( <= ( + T5 260 )( + T2 270 ) ) )
(or ( <= ( + T2 379 )  ( + T5 260 ) ) ( <= ( + T5 358 )( + T2 316 ) ) )
(or ( <= ( + T2 477 )  ( + T5 358 ) ) ( <= ( + T5 404 )( + T2 379 ) ) )
(or ( <= ( + T2 523 )  ( + T5 404 ) ) ( <= ( + T5 497 )( + T2 477 ) ) )
(or ( <= ( + T2 24 ) T6 ) ( <= ( + T6 93 ) T2 ) )
(or ( <= ( + T2 120 )  ( + T6 93 ) ) ( <= ( + T6 115 )( + T2 24 ) ) )
(or ( <= ( + T2 196 )  ( + T6 115 ) ) ( <= ( + T6 133 )( + T2 120 ) ) )
(or ( <= ( + T2 270 )  ( + T6 133 ) ) ( <= ( + T6 171 )( + T2 196 ) ) )
(or ( <= ( + T2 316 )  ( + T6 171 ) ) ( <= ( + T6 255 )( + T2 270 ) ) )
(or ( <= ( + T2 379 )  ( + T6 255 ) ) ( <= ( + T6 270 )( + T2 316 ) ) )
(or ( <= ( + T2 477 )  ( + T6 270 ) ) ( <= ( + T6 306 )( + T2 379 ) ) )
(or ( <= ( + T2 523 )  ( + T6 306 ) ) ( <= ( + T6 355 )( + T2 477 ) ) )
(or ( <= ( + T2 24 ) T7 ) ( <= ( + T7 1 ) T2 ) )
(or ( <= ( + T2 120 )  ( + T7 1 ) ) ( <= ( + T7 9 )( + T2 24 ) ) )
(or ( <= ( + T2 196 )  ( + T7 9 ) ) ( <= ( + T7 95 )( + T2 120 ) ) )
(or ( <= ( + T2 270 )  ( + T7 95 ) ) ( <= ( + T7 140 )( + T2 196 ) ) )
(or ( <= ( + T2 316 )  ( + T7 140 ) ) ( <= ( + T7 240 )( + T2 270 ) ) )
(or ( <= ( + T2 379 )  ( + T7 240 ) ) ( <= ( + T7 249 )( + T2 316 ) ) )
(or ( <= ( + T2 477 )  ( + T7 249 ) ) ( <= ( + T7 262 )( + T2 379 ) ) )
(or ( <= ( + T2 523 )  ( + T7 262 ) ) ( <= ( + T7 325 )( + T2 477 ) ) )
(or ( <= ( + T2 24 ) T8 ) ( <= ( + T8 50 ) T2 ) )
(or ( <= ( + T2 120 )  ( + T8 50 ) ) ( <= ( + T8 66 )( + T2 24 ) ) )
(or ( <= ( + T2 196 )  ( + T8 66 ) ) ( <= ( + T8 118 )( + T2 120 ) ) )
(or ( <= ( + T2 270 )  ( + T8 118 ) ) ( <= ( + T8 142 )( + T2 196 ) ) )
(or ( <= ( + T2 316 )  ( + T8 142 ) ) ( <= ( + T8 208 )( + T2 270 ) ) )
(or ( <= ( + T2 379 )  ( + T8 208 ) ) ( <= ( + T8 273 )( + T2 316 ) ) )
(or ( <= ( + T2 477 )  ( + T8 273 ) ) ( <= ( + T8 346 )( + T2 379 ) ) )
(or ( <= ( + T2 523 )  ( + T8 346 ) ) ( <= ( + T8 411 )( + T2 477 ) ) )
(or ( <= ( + T2 24 ) T9 ) ( <= ( + T9 12 ) T2 ) )
(or ( <= ( + T2 120 )  ( + T9 12 ) ) ( <= ( + T9 38 )( + T2 24 ) ) )
(or ( <= ( + T2 196 )  ( + T9 38 ) ) ( <= ( + T9 50 )( + T2 120 ) ) )
(or ( <= ( + T2 270 )  ( + T9 50 ) ) ( <= ( + T9 79 )( + T2 196 ) ) )
(or ( <= ( + T2 316 )  ( + T9 79 ) ) ( <= ( + T9 103 )( + T2 270 ) ) )
(or ( <= ( + T2 379 )  ( + T9 103 ) ) ( <= ( + T9 161 )( + T2 316 ) ) )
(or ( <= ( + T2 477 )  ( + T9 161 ) ) ( <= ( + T9 235 )( + T2 379 ) ) )
(or ( <= ( + T2 523 )  ( + T9 235 ) ) ( <= ( + T9 303 )( + T2 477 ) ) )
(or ( <= ( + T2 24 ) T10 ) ( <= ( + T10 79 ) T2 ) )
(or ( <= ( + T2 120 )  ( + T10 79 ) ) ( <= ( + T10 170 )( + T2 24 ) ) )
(or ( <= ( + T2 196 )  ( + T10 170 ) ) ( <= ( + T10 176 )( + T2 120 ) ) )
(or ( <= ( + T2 270 )  ( + T10 176 ) ) ( <= ( + T10 190 )( + T2 196 ) ) )
(or ( <= ( + T2 316 )  ( + T10 190 ) ) ( <= ( + T10 248 )( + T2 270 ) ) )
(or ( <= ( + T2 379 )  ( + T10 248 ) ) ( <= ( + T10 341 )( + T2 316 ) ) )
(or ( <= ( + T2 477 )  ( + T10 341 ) ) ( <= ( + T10 355 )( + T2 379 ) ) )
(or ( <= ( + T2 523 )  ( + T10 355 ) ) ( <= ( + T10 365 )( + T2 477 ) ) )
(or ( <= ( + T3 14 ) T4 ) ( <= ( + T4 11 ) T3 ) )
(or ( <= ( + T3 101 )  ( + T4 11 ) ) ( <= ( + T4 53 )( + T3 14 ) ) )
(or ( <= ( + T3 122 )  ( + T4 53 ) ) ( <= ( + T4 105 )( + T3 101 ) ) )
(or ( <= ( + T3 159 )  ( + T4 105 ) ) ( <= ( + T4 195 )( + T3 122 ) ) )
(or ( <= ( + T3 252 )  ( + T4 195 ) ) ( <= ( + T4 217 )( + T3 159 ) ) )
(or ( <= ( + T3 345 )  ( + T4 217 ) ) ( <= ( + T4 267 )( + T3 252 ) ) )
(or ( <= ( + T3 417 )  ( + T4 267 ) ) ( <= ( + T4 280 )( + T3 345 ) ) )
(or ( <= ( + T3 486 )  ( + T4 280 ) ) ( <= ( + T4 330 )( + T3 417 ) ) )
(or ( <= ( + T3 14 ) T5 ) ( <= ( + T5 48 ) T3 ) )
(or ( <= ( + T3 101 )  ( + T5 48 ) ) ( <= ( + T5 144 )( + T3 14 ) ) )
(or ( <= ( + T3 122 )  ( + T5 144 ) ) ( <= ( + T5 146 )( + T3 101 ) ) )
(or ( <= ( + T3 159 )  ( + T5 146 ) ) ( <= ( + T5 242 )( + T3 122 ) ) )
(or ( <= ( + T3 252 )  ( + T5 242 ) ) ( <= ( + T5 260 )( + T3 159 ) ) )
(or ( <= ( + T3 345 )  ( + T5 260 ) ) ( <= ( + T5 358 )( + T3 252 ) ) )
(or ( <= ( + T3 417 )  ( + T5 358 ) ) ( <= ( + T5 404 )( + T3 345 ) ) )
(or ( <= ( + T3 486 )  ( + T5 404 ) ) ( <= ( + T5 497 )( + T3 417 ) ) )
(or ( <= ( + T3 14 ) T6 ) ( <= ( + T6 93 ) T3 ) )
(or ( <= ( + T3 101 )  ( + T6 93 ) ) ( <= ( + T6 115 )( + T3 14 ) ) )
(or ( <= ( + T3 122 )  ( + T6 115 ) ) ( <= ( + T6 133 )( + T3 101 ) ) )
(or ( <= ( + T3 159 )  ( + T6 133 ) ) ( <= ( + T6 171 )( + T3 122 ) ) )
(or ( <= ( + T3 252 )  ( + T6 171 ) ) ( <= ( + T6 255 )( + T3 159 ) ) )
(or ( <= ( + T3 345 )  ( + T6 255 ) ) ( <= ( + T6 270 )( + T3 252 ) ) )
(or ( <= ( + T3 417 )  ( + T6 270 ) ) ( <= ( + T6 306 )( + T3 345 ) ) )
(or ( <= ( + T3 486 )  ( + T6 306 ) ) ( <= ( + T6 355 )( + T3 417 ) ) )
(or ( <= ( + T3 14 ) T7 ) ( <= ( + T7 1 ) T3 ) )
(or ( <= ( + T3 101 )  ( + T7 1 ) ) ( <= ( + T7 9 )( + T3 14 ) ) )
(or ( <= ( + T3 122 )  ( + T7 9 ) ) ( <= ( + T7 95 )( + T3 101 ) ) )
(or ( <= ( + T3 159 )  ( + T7 95 ) ) ( <= ( + T7 140 )( + T3 122 ) ) )
(or ( <= ( + T3 252 )  ( + T7 140 ) ) ( <= ( + T7 240 )( + T3 159 ) ) )
(or ( <= ( + T3 345 )  ( + T7 240 ) ) ( <= ( + T7 249 )( + T3 252 ) ) )
(or ( <= ( + T3 417 )  ( + T7 249 ) ) ( <= ( + T7 262 )( + T3 345 ) ) )
(or ( <= ( + T3 486 )  ( + T7 262 ) ) ( <= ( + T7 325 )( + T3 417 ) ) )
(or ( <= ( + T3 14 ) T8 ) ( <= ( + T8 50 ) T3 ) )
(or ( <= ( + T3 101 )  ( + T8 50 ) ) ( <= ( + T8 66 )( + T3 14 ) ) )
(or ( <= ( + T3 122 )  ( + T8 66 ) ) ( <= ( + T8 118 )( + T3 101 ) ) )
(or ( <= ( + T3 159 )  ( + T8 118 ) ) ( <= ( + T8 142 )( + T3 122 ) ) )
(or ( <= ( + T3 252 )  ( + T8 142 ) ) ( <= ( + T8 208 )( + T3 159 ) ) )
(or ( <= ( + T3 345 )  ( + T8 208 ) ) ( <= ( + T8 273 )( + T3 252 ) ) )
(or ( <= ( + T3 417 )  ( + T8 273 ) ) ( <= ( + T8 346 )( + T3 345 ) ) )
(or ( <= ( + T3 486 )  ( + T8 346 ) ) ( <= ( + T8 411 )( + T3 417 ) ) )
(or ( <= ( + T3 14 ) T9 ) ( <= ( + T9 12 ) T3 ) )
(or ( <= ( + T3 101 )  ( + T9 12 ) ) ( <= ( + T9 38 )( + T3 14 ) ) )
(or ( <= ( + T3 122 )  ( + T9 38 ) ) ( <= ( + T9 50 )( + T3 101 ) ) )
(or ( <= ( + T3 159 )  ( + T9 50 ) ) ( <= ( + T9 79 )( + T3 122 ) ) )
(or ( <= ( + T3 252 )  ( + T9 79 ) ) ( <= ( + T9 103 )( + T3 159 ) ) )
(or ( <= ( + T3 345 )  ( + T9 103 ) ) ( <= ( + T9 161 )( + T3 252 ) ) )
(or ( <= ( + T3 417 )  ( + T9 161 ) ) ( <= ( + T9 235 )( + T3 345 ) ) )
(or ( <= ( + T3 486 )  ( + T9 235 ) ) ( <= ( + T9 303 )( + T3 417 ) ) )
(or ( <= ( + T3 14 ) T10 ) ( <= ( + T10 79 ) T3 ) )
(or ( <= ( + T3 101 )  ( + T10 79 ) ) ( <= ( + T10 170 )( + T3 14 ) ) )
(or ( <= ( + T3 122 )  ( + T10 170 ) ) ( <= ( + T10 176 )( + T3 101 ) ) )
(or ( <= ( + T3 159 )  ( + T10 176 ) ) ( <= ( + T10 190 )( + T3 122 ) ) )
(or ( <= ( + T3 252 )  ( + T10 190 ) ) ( <= ( + T10 248 )( + T3 159 ) ) )
(or ( <= ( + T3 345 )  ( + T10 248 ) ) ( <= ( + T10 341 )( + T3 252 ) ) )
(or ( <= ( + T3 417 )  ( + T10 341 ) ) ( <= ( + T10 355 )( + T3 345 ) ) )
(or ( <= ( + T3 486 )  ( + T10 355 ) ) ( <= ( + T10 365 )( + T3 417 ) ) )
(or ( <= ( + T4 11 ) T5 ) ( <= ( + T5 48 ) T4 ) )
(or ( <= ( + T4 53 )  ( + T5 48 ) ) ( <= ( + T5 144 )( + T4 11 ) ) )
(or ( <= ( + T4 105 )  ( + T5 144 ) ) ( <= ( + T5 146 )( + T4 53 ) ) )
(or ( <= ( + T4 195 )  ( + T5 146 ) ) ( <= ( + T5 242 )( + T4 105 ) ) )
(or ( <= ( + T4 217 )  ( + T5 242 ) ) ( <= ( + T5 260 )( + T4 195 ) ) )
(or ( <= ( + T4 267 )  ( + T5 260 ) ) ( <= ( + T5 358 )( + T4 217 ) ) )
(or ( <= ( + T4 280 )  ( + T5 358 ) ) ( <= ( + T5 404 )( + T4 267 ) ) )
(or ( <= ( + T4 330 )  ( + T5 404 ) ) ( <= ( + T5 497 )( + T4 280 ) ) )
(or ( <= ( + T4 11 ) T6 ) ( <= ( + T6 93 ) T4 ) )
(or ( <= ( + T4 53 )  ( + T6 93 ) ) ( <= ( + T6 115 )( + T4 11 ) ) )
(or ( <= ( + T4 105 )  ( + T6 115 ) ) ( <= ( + T6 133 )( + T4 53 ) ) )
(or ( <= ( + T4 195 )  ( + T6 133 ) ) ( <= ( + T6 171 )( + T4 105 ) ) )
(or ( <= ( + T4 217 )  ( + T6 171 ) ) ( <= ( + T6 255 )( + T4 195 ) ) )
(or ( <= ( + T4 267 )  ( + T6 255 ) ) ( <= ( + T6 270 )( + T4 217 ) ) )
(or ( <= ( + T4 280 )  ( + T6 270 ) ) ( <= ( + T6 306 )( + T4 267 ) ) )
(or ( <= ( + T4 330 )  ( + T6 306 ) ) ( <= ( + T6 355 )( + T4 280 ) ) )
(or ( <= ( + T4 11 ) T7 ) ( <= ( + T7 1 ) T4 ) )
(or ( <= ( + T4 53 )  ( + T7 1 ) ) ( <= ( + T7 9 )( + T4 11 ) ) )
(or ( <= ( + T4 105 )  ( + T7 9 ) ) ( <= ( + T7 95 )( + T4 53 ) ) )
(or ( <= ( + T4 195 )  ( + T7 95 ) ) ( <= ( + T7 140 )( + T4 105 ) ) )
(or ( <= ( + T4 217 )  ( + T7 140 ) ) ( <= ( + T7 240 )( + T4 195 ) ) )
(or ( <= ( + T4 267 )  ( + T7 240 ) ) ( <= ( + T7 249 )( + T4 217 ) ) )
(or ( <= ( + T4 280 )  ( + T7 249 ) ) ( <= ( + T7 262 )( + T4 267 ) ) )
(or ( <= ( + T4 330 )  ( + T7 262 ) ) ( <= ( + T7 325 )( + T4 280 ) ) )
(or ( <= ( + T4 11 ) T8 ) ( <= ( + T8 50 ) T4 ) )
(or ( <= ( + T4 53 )  ( + T8 50 ) ) ( <= ( + T8 66 )( + T4 11 ) ) )
(or ( <= ( + T4 105 )  ( + T8 66 ) ) ( <= ( + T8 118 )( + T4 53 ) ) )
(or ( <= ( + T4 195 )  ( + T8 118 ) ) ( <= ( + T8 142 )( + T4 105 ) ) )
(or ( <= ( + T4 217 )  ( + T8 142 ) ) ( <= ( + T8 208 )( + T4 195 ) ) )
(or ( <= ( + T4 267 )  ( + T8 208 ) ) ( <= ( + T8 273 )( + T4 217 ) ) )
(or ( <= ( + T4 280 )  ( + T8 273 ) ) ( <= ( + T8 346 )( + T4 267 ) ) )
(or ( <= ( + T4 330 )  ( + T8 346 ) ) ( <= ( + T8 411 )( + T4 280 ) ) )
(or ( <= ( + T4 11 ) T9 ) ( <= ( + T9 12 ) T4 ) )
(or ( <= ( + T4 53 )  ( + T9 12 ) ) ( <= ( + T9 38 )( + T4 11 ) ) )
(or ( <= ( + T4 105 )  ( + T9 38 ) ) ( <= ( + T9 50 )( + T4 53 ) ) )
(or ( <= ( + T4 195 )  ( + T9 50 ) ) ( <= ( + T9 79 )( + T4 105 ) ) )
(or ( <= ( + T4 217 )  ( + T9 79 ) ) ( <= ( + T9 103 )( + T4 195 ) ) )
(or ( <= ( + T4 267 )  ( + T9 103 ) ) ( <= ( + T9 161 )( + T4 217 ) ) )
(or ( <= ( + T4 280 )  ( + T9 161 ) ) ( <= ( + T9 235 )( + T4 267 ) ) )
(or ( <= ( + T4 330 )  ( + T9 235 ) ) ( <= ( + T9 303 )( + T4 280 ) ) )
(or ( <= ( + T4 11 ) T10 ) ( <= ( + T10 79 ) T4 ) )
(or ( <= ( + T4 53 )  ( + T10 79 ) ) ( <= ( + T10 170 )( + T4 11 ) ) )
(or ( <= ( + T4 105 )  ( + T10 170 ) ) ( <= ( + T10 176 )( + T4 53 ) ) )
(or ( <= ( + T4 195 )  ( + T10 176 ) ) ( <= ( + T10 190 )( + T4 105 ) ) )
(or ( <= ( + T4 217 )  ( + T10 190 ) ) ( <= ( + T10 248 )( + T4 195 ) ) )
(or ( <= ( + T4 267 )  ( + T10 248 ) ) ( <= ( + T10 341 )( + T4 217 ) ) )
(or ( <= ( + T4 280 )  ( + T10 341 ) ) ( <= ( + T10 355 )( + T4 267 ) ) )
(or ( <= ( + T4 330 )  ( + T10 355 ) ) ( <= ( + T10 365 )( + T4 280 ) ) )
(or ( <= ( + T5 48 ) T6 ) ( <= ( + T6 93 ) T5 ) )
(or ( <= ( + T5 144 )  ( + T6 93 ) ) ( <= ( + T6 115 )( + T5 48 ) ) )
(or ( <= ( + T5 146 )  ( + T6 115 ) ) ( <= ( + T6 133 )( + T5 144 ) ) )
(or ( <= ( + T5 242 )  ( + T6 133 ) ) ( <= ( + T6 171 )( + T5 146 ) ) )
(or ( <= ( + T5 260 )  ( + T6 171 ) ) ( <= ( + T6 255 )( + T5 242 ) ) )
(or ( <= ( + T5 358 )  ( + T6 255 ) ) ( <= ( + T6 270 )( + T5 260 ) ) )
(or ( <= ( + T5 404 )  ( + T6 270 ) ) ( <= ( + T6 306 )( + T5 358 ) ) )
(or ( <= ( + T5 497 )  ( + T6 306 ) ) ( <= ( + T6 355 )( + T5 404 ) ) )
(or ( <= ( + T5 48 ) T7 ) ( <= ( + T7 1 ) T5 ) )
(or ( <= ( + T5 144 )  ( + T7 1 ) ) ( <= ( + T7 9 )( + T5 48 ) ) )
(or ( <= ( + T5 146 )  ( + T7 9 ) ) ( <= ( + T7 95 )( + T5 144 ) ) )
(or ( <= ( + T5 242 )  ( + T7 95 ) ) ( <= ( + T7 140 )( + T5 146 ) ) )
(or ( <= ( + T5 260 )  ( + T7 140 ) ) ( <= ( + T7 240 )( + T5 242 ) ) )
(or ( <= ( + T5 358 )  ( + T7 240 ) ) ( <= ( + T7 249 )( + T5 260 ) ) )
(or ( <= ( + T5 404 )  ( + T7 249 ) ) ( <= ( + T7 262 )( + T5 358 ) ) )
(or ( <= ( + T5 497 )  ( + T7 262 ) ) ( <= ( + T7 325 )( + T5 404 ) ) )
(or ( <= ( + T5 48 ) T8 ) ( <= ( + T8 50 ) T5 ) )
(or ( <= ( + T5 144 )  ( + T8 50 ) ) ( <= ( + T8 66 )( + T5 48 ) ) )
(or ( <= ( + T5 146 )  ( + T8 66 ) ) ( <= ( + T8 118 )( + T5 144 ) ) )
(or ( <= ( + T5 242 )  ( + T8 118 ) ) ( <= ( + T8 142 )( + T5 146 ) ) )
(or ( <= ( + T5 260 )  ( + T8 142 ) ) ( <= ( + T8 208 )( + T5 242 ) ) )
(or ( <= ( + T5 358 )  ( + T8 208 ) ) ( <= ( + T8 273 )( + T5 260 ) ) )
(or ( <= ( + T5 404 )  ( + T8 273 ) ) ( <= ( + T8 346 )( + T5 358 ) ) )
(or ( <= ( + T5 497 )  ( + T8 346 ) ) ( <= ( + T8 411 )( + T5 404 ) ) )
(or ( <= ( + T5 48 ) T9 ) ( <= ( + T9 12 ) T5 ) )
(or ( <= ( + T5 144 )  ( + T9 12 ) ) ( <= ( + T9 38 )( + T5 48 ) ) )
(or ( <= ( + T5 146 )  ( + T9 38 ) ) ( <= ( + T9 50 )( + T5 144 ) ) )
(or ( <= ( + T5 242 )  ( + T9 50 ) ) ( <= ( + T9 79 )( + T5 146 ) ) )
(or ( <= ( + T5 260 )  ( + T9 79 ) ) ( <= ( + T9 103 )( + T5 242 ) ) )
(or ( <= ( + T5 358 )  ( + T9 103 ) ) ( <= ( + T9 161 )( + T5 260 ) ) )
(or ( <= ( + T5 404 )  ( + T9 161 ) ) ( <= ( + T9 235 )( + T5 358 ) ) )
(or ( <= ( + T5 497 )  ( + T9 235 ) ) ( <= ( + T9 303 )( + T5 404 ) ) )
(or ( <= ( + T5 48 ) T10 ) ( <= ( + T10 79 ) T5 ) )
(or ( <= ( + T5 144 )  ( + T10 79 ) ) ( <= ( + T10 170 )( + T5 48 ) ) )
(or ( <= ( + T5 146 )  ( + T10 170 ) ) ( <= ( + T10 176 )( + T5 144 ) ) )
(or ( <= ( + T5 242 )  ( + T10 176 ) ) ( <= ( + T10 190 )( + T5 146 ) ) )
(or ( <= ( + T5 260 )  ( + T10 190 ) ) ( <= ( + T10 248 )( + T5 242 ) ) )
(or ( <= ( + T5 358 )  ( + T10 248 ) ) ( <= ( + T10 341 )( + T5 260 ) ) )
(or ( <= ( + T5 404 )  ( + T10 341 ) ) ( <= ( + T10 355 )( + T5 358 ) ) )
(or ( <= ( + T5 497 )  ( + T10 355 ) ) ( <= ( + T10 365 )( + T5 404 ) ) )
(or ( <= ( + T6 93 ) T7 ) ( <= ( + T7 1 ) T6 ) )
(or ( <= ( + T6 115 )  ( + T7 1 ) ) ( <= ( + T7 9 )( + T6 93 ) ) )
(or ( <= ( + T6 133 )  ( + T7 9 ) ) ( <= ( + T7 95 )( + T6 115 ) ) )
(or ( <= ( + T6 171 )  ( + T7 95 ) ) ( <= ( + T7 140 )( + T6 133 ) ) )
(or ( <= ( + T6 255 )  ( + T7 140 ) ) ( <= ( + T7 240 )( + T6 171 ) ) )
(or ( <= ( + T6 270 )  ( + T7 240 ) ) ( <= ( + T7 249 )( + T6 255 ) ) )
(or ( <= ( + T6 306 )  ( + T7 249 ) ) ( <= ( + T7 262 )( + T6 270 ) ) )
(or ( <= ( + T6 355 )  ( + T7 262 ) ) ( <= ( + T7 325 )( + T6 306 ) ) )
(or ( <= ( + T6 93 ) T8 ) ( <= ( + T8 50 ) T6 ) )
(or ( <= ( + T6 115 )  ( + T8 50 ) ) ( <= ( + T8 66 )( + T6 93 ) ) )
(or ( <= ( + T6 133 )  ( + T8 66 ) ) ( <= ( + T8 118 )( + T6 115 ) ) )
(or ( <= ( + T6 171 )  ( + T8 118 ) ) ( <= ( + T8 142 )( + T6 133 ) ) )
(or ( <= ( + T6 255 )  ( + T8 142 ) ) ( <= ( + T8 208 )( + T6 171 ) ) )
(or ( <= ( + T6 270 )  ( + T8 208 ) ) ( <= ( + T8 273 )( + T6 255 ) ) )
(or ( <= ( + T6 306 )  ( + T8 273 ) ) ( <= ( + T8 346 )( + T6 270 ) ) )
(or ( <= ( + T6 355 )  ( + T8 346 ) ) ( <= ( + T8 411 )( + T6 306 ) ) )
(or ( <= ( + T6 93 ) T9 ) ( <= ( + T9 12 ) T6 ) )
(or ( <= ( + T6 115 )  ( + T9 12 ) ) ( <= ( + T9 38 )( + T6 93 ) ) )
(or ( <= ( + T6 133 )  ( + T9 38 ) ) ( <= ( + T9 50 )( + T6 115 ) ) )
(or ( <= ( + T6 171 )  ( + T9 50 ) ) ( <= ( + T9 79 )( + T6 133 ) ) )
(or ( <= ( + T6 255 )  ( + T9 79 ) ) ( <= ( + T9 103 )( + T6 171 ) ) )
(or ( <= ( + T6 270 )  ( + T9 103 ) ) ( <= ( + T9 161 )( + T6 255 ) ) )
(or ( <= ( + T6 306 )  ( + T9 161 ) ) ( <= ( + T9 235 )( + T6 270 ) ) )
(or ( <= ( + T6 355 )  ( + T9 235 ) ) ( <= ( + T9 303 )( + T6 306 ) ) )
(or ( <= ( + T6 93 ) T10 ) ( <= ( + T10 79 ) T6 ) )
(or ( <= ( + T6 115 )  ( + T10 79 ) ) ( <= ( + T10 170 )( + T6 93 ) ) )
(or ( <= ( + T6 133 )  ( + T10 170 ) ) ( <= ( + T10 176 )( + T6 115 ) ) )
(or ( <= ( + T6 171 )  ( + T10 176 ) ) ( <= ( + T10 190 )( + T6 133 ) ) )
(or ( <= ( + T6 255 )  ( + T10 190 ) ) ( <= ( + T10 248 )( + T6 171 ) ) )
(or ( <= ( + T6 270 )  ( + T10 248 ) ) ( <= ( + T10 341 )( + T6 255 ) ) )
(or ( <= ( + T6 306 )  ( + T10 341 ) ) ( <= ( + T10 355 )( + T6 270 ) ) )
(or ( <= ( + T6 355 )  ( + T10 355 ) ) ( <= ( + T10 365 )( + T6 306 ) ) )
(or ( <= ( + T7 1 ) T8 ) ( <= ( + T8 50 ) T7 ) )
(or ( <= ( + T7 9 )  ( + T8 50 ) ) ( <= ( + T8 66 )( + T7 1 ) ) )
(or ( <= ( + T7 95 )  ( + T8 66 ) ) ( <= ( + T8 118 )( + T7 9 ) ) )
(or ( <= ( + T7 140 )  ( + T8 118 ) ) ( <= ( + T8 142 )( + T7 95 ) ) )
(or ( <= ( + T7 240 )  ( + T8 142 ) ) ( <= ( + T8 208 )( + T7 140 ) ) )
(or ( <= ( + T7 249 )  ( + T8 208 ) ) ( <= ( + T8 273 )( + T7 240 ) ) )
(or ( <= ( + T7 262 )  ( + T8 273 ) ) ( <= ( + T8 346 )( + T7 249 ) ) )
(or ( <= ( + T7 325 )  ( + T8 346 ) ) ( <= ( + T8 411 )( + T7 262 ) ) )
(or ( <= ( + T7 1 ) T9 ) ( <= ( + T9 12 ) T7 ) )
(or ( <= ( + T7 9 )  ( + T9 12 ) ) ( <= ( + T9 38 )( + T7 1 ) ) )
(or ( <= ( + T7 95 )  ( + T9 38 ) ) ( <= ( + T9 50 )( + T7 9 ) ) )
(or ( <= ( + T7 140 )  ( + T9 50 ) ) ( <= ( + T9 79 )( + T7 95 ) ) )
(or ( <= ( + T7 240 )  ( + T9 79 ) ) ( <= ( + T9 103 )( + T7 140 ) ) )
(or ( <= ( + T7 249 )  ( + T9 103 ) ) ( <= ( + T9 161 )( + T7 240 ) ) )
(or ( <= ( + T7 262 )  ( + T9 161 ) ) ( <= ( + T9 235 )( + T7 249 ) ) )
(or ( <= ( + T7 325 )  ( + T9 235 ) ) ( <= ( + T9 303 )( + T7 262 ) ) )
(or ( <= ( + T7 1 ) T10 ) ( <= ( + T10 79 ) T7 ) )
(or ( <= ( + T7 9 )  ( + T10 79 ) ) ( <= ( + T10 170 )( + T7 1 ) ) )
(or ( <= ( + T7 95 )  ( + T10 170 ) ) ( <= ( + T10 176 )( + T7 9 ) ) )
(or ( <= ( + T7 140 )  ( + T10 176 ) ) ( <= ( + T10 190 )( + T7 95 ) ) )
(or ( <= ( + T7 240 )  ( + T10 190 ) ) ( <= ( + T10 248 )( + T7 140 ) ) )
(or ( <= ( + T7 249 )  ( + T10 248 ) ) ( <= ( + T10 341 )( + T7 240 ) ) )
(or ( <= ( + T7 262 )  ( + T10 341 ) ) ( <= ( + T10 355 )( + T7 249 ) ) )
(or ( <= ( + T7 325 )  ( + T10 355 ) ) ( <= ( + T10 365 )( + T7 262 ) ) )
(or ( <= ( + T8 50 ) T9 ) ( <= ( + T9 12 ) T8 ) )
(or ( <= ( + T8 66 )  ( + T9 12 ) ) ( <= ( + T9 38 )( + T8 50 ) ) )
(or ( <= ( + T8 118 )  ( + T9 38 ) ) ( <= ( + T9 50 )( + T8 66 ) ) )
(or ( <= ( + T8 142 )  ( + T9 50 ) ) ( <= ( + T9 79 )( + T8 118 ) ) )
(or ( <= ( + T8 208 )  ( + T9 79 ) ) ( <= ( + T9 103 )( + T8 142 ) ) )
(or ( <= ( + T8 273 )  ( + T9 103 ) ) ( <= ( + T9 161 )( + T8 208 ) ) )
(or ( <= ( + T8 346 )  ( + T9 161 ) ) ( <= ( + T9 235 )( + T8 273 ) ) )
(or ( <= ( + T8 411 )  ( + T9 235 ) ) ( <= ( + T9 303 )( + T8 346 ) ) )
(or ( <= ( + T8 50 ) T10 ) ( <= ( + T10 79 ) T8 ) )
(or ( <= ( + T8 66 )  ( + T10 79 ) ) ( <= ( + T10 170 )( + T8 50 ) ) )
(or ( <= ( + T8 118 )  ( + T10 170 ) ) ( <= ( + T10 176 )( + T8 66 ) ) )
(or ( <= ( + T8 142 )  ( + T10 176 ) ) ( <= ( + T10 190 )( + T8 118 ) ) )
(or ( <= ( + T8 208 )  ( + T10 190 ) ) ( <= ( + T10 248 )( + T8 142 ) ) )
(or ( <= ( + T8 273 )  ( + T10 248 ) ) ( <= ( + T10 341 )( + T8 208 ) ) )
(or ( <= ( + T8 346 )  ( + T10 341 ) ) ( <= ( + T10 355 )( + T8 273 ) ) )
(or ( <= ( + T8 411 )  ( + T10 355 ) ) ( <= ( + T10 365 )( + T8 346 ) ) )
(or ( <= ( + T9 12 ) T10 ) ( <= ( + T10 79 ) T9 ) )
(or ( <= ( + T9 38 )  ( + T10 79 ) ) ( <= ( + T10 170 )( + T9 12 ) ) )
(or ( <= ( + T9 50 )  ( + T10 170 ) ) ( <= ( + T10 176 )( + T9 38 ) ) )
(or ( <= ( + T9 79 )  ( + T10 176 ) ) ( <= ( + T10 190 )( + T9 50 ) ) )
(or ( <= ( + T9 103 )  ( + T10 190 ) ) ( <= ( + T10 248 )( + T9 79 ) ) )
(or ( <= ( + T9 161 )  ( + T10 248 ) ) ( <= ( + T10 341 )( + T9 103 ) ) )
(or ( <= ( + T9 235 )  ( + T10 341 ) ) ( <= ( + T10 355 )( + T9 161 ) ) )
(or ( <= ( + T9 303 )  ( + T10 355 ) ) ( <= ( + T10 365 )( + T9 235 ) ) )
( <= ( + T1 474 ) Z)
( <= ( + T2 523 ) Z)
( <= ( + T3 486 ) Z)
( <= ( + T4 330 ) Z)
( <= ( + T5 497 ) Z)
( <= ( + T6 355 ) Z)
( <= ( + T7 325 ) Z)
( <= ( + T8 411 ) Z)
( <= ( + T9 303 ) Z)
( <= ( + T10 365 ) Z)
( >= T1 0 )
( >= T2 0 )
( >= T3 0 )
( >= T4 0 )
( >= T5 0 )
( >= T6 0 )
( >= T7 0 )
( >= T8 0 )
( >= T9 0 )
( >= T10 0 )
) )
(minimize Z)
(check-sat)